p cnf 24 60
a 21 14 0
e 1 2 3 4 5 6 7 8 9 10 11 12 13 15 16 17 18 19 20 22 23 24 0
-4 5 -6 0
4 -5 -6 0
-4 -5 6 0
4 5 6 0
3 6 -7 0
-3 -6 -7 0
3 -6 7 0
-3 6 7 0
7 8 0
-7 8 0
9 2 0
9 -8 0
-2 8 -9 0
-10 1 0
-10 -9 0
-1 9 10 0
12 -11 0
12 2 0
11 -2 -12 0
9 12 -13 0
-9 -12 -13 0
9 -12 13 0
-9 12 13 0
14 -10 0
14 13 0
10 -13 -14 0
-16 -11 0
-16 -15 0
11 15 16 0
-17 9 0
-17 6 0
-9 -6 17 0
16 17 -18 0
-16 -17 -18 0
16 -17 18 0
-16 17 18 0
-19 4 0
-19 -1 0
-4 1 19 0
-21 20 0
-21 1 0
-20 -1 21 0
19 21 -22 0
-19 -21 -22 0
19 -21 22 0
-19 21 22 0
-18 22 -23 0
18 -22 -23 0
-18 -22 23 0
18 22 23 0
-14 23 -24 0
14 -23 -24 0
-14 -23 24 0
14 23 24 0
4 -14 -20 15 5 -23 21 0
-22 8 0
9 -10 -4 0
-5 24 16 -23 -8 0
-7 -1 -11 4 -16 2 23 0
24 0
